p cnf 120 394
1 2 3 0
4 5 6 0
7 8 9 0
10 11 12 0
13 14 15 0
16 17 18 0
19 20 21 0
22 23 24 0
25 26 27 0
28 29 30 0
31 32 33 0
34 35 36 0
37 38 39 0
40 41 42 0
43 44 45 0
46 47 48 0
49 50 51 0
52 53 54 0
55 56 57 0
58 59 60 0
61 62 63 0
64 65 66 0
67 68 69 0
70 71 72 0
73 74 75 0
76 77 78 0
79 80 81 0
82 83 84 0
85 86 87 0
88 89 90 0
91 92 93 0
94 95 96 0
97 98 99 0
100 101 102 0
103 104 105 0
106 107 108 0
109 110 111 0
112 113 114 0
115 116 117 0
118 119 120 0
-1 -2 0
-1 -3 0
-2 -3 0
-4 -5 0
-4 -6 0
-5 -6 0
-7 -8 0
-7 -9 0
-8 -9 0
-10 -11 0
-10 -12 0
-11 -12 0
-13 -14 0
-13 -15 0
-14 -15 0
-16 -17 0
-16 -18 0
-17 -18 0
-19 -20 0
-19 -21 0
-20 -21 0
-22 -23 0
-22 -24 0
-23 -24 0
-25 -26 0
-25 -27 0
-26 -27 0
-28 -29 0
-28 -30 0
-29 -30 0
-31 -32 0
-31 -33 0
-32 -33 0
-34 -35 0
-34 -36 0
-35 -36 0
-37 -38 0
-37 -39 0
-38 -39 0
-40 -41 0
-40 -42 0
-41 -42 0
-43 -44 0
-43 -45 0
-44 -45 0
-46 -47 0
-46 -48 0
-47 -48 0
-49 -50 0
-49 -51 0
-50 -51 0
-52 -53 0
-52 -54 0
-53 -54 0
-55 -56 0
-55 -57 0
-56 -57 0
-58 -59 0
-58 -60 0
-59 -60 0
-61 -62 0
-61 -63 0
-62 -63 0
-64 -65 0
-64 -66 0
-65 -66 0
-67 -68 0
-67 -69 0
-68 -69 0
-70 -71 0
-70 -72 0
-71 -72 0
-73 -74 0
-73 -75 0
-74 -75 0
-76 -77 0
-76 -78 0
-77 -78 0
-79 -80 0
-79 -81 0
-80 -81 0
-82 -83 0
-82 -84 0
-83 -84 0
-85 -86 0
-85 -87 0
-86 -87 0
-88 -89 0
-88 -90 0
-89 -90 0
-91 -92 0
-91 -93 0
-92 -93 0
-94 -95 0
-94 -96 0
-95 -96 0
-97 -98 0
-97 -99 0
-98 -99 0
-100 -101 0
-100 -102 0
-101 -102 0
-103 -104 0
-103 -105 0
-104 -105 0
-106 -107 0
-106 -108 0
-107 -108 0
-109 -110 0
-109 -111 0
-110 -111 0
-112 -113 0
-112 -114 0
-113 -114 0
-115 -116 0
-115 -117 0
-116 -117 0
-118 -119 0
-118 -120 0
-119 -120 0
-1 -7 0
-1 -43 0
-4 -58 0
-4 -79 0
-7 -1 0
-7 -19 0
-10 -25 0
-10 -64 0
-13 -34 0
-13 -46 0
-16 -25 0
-16 -91 0
-19 -7 0
-19 -91 0
-22 -67 0
-22 -109 0
-25 -10 0
-25 -16 0
-28 -46 0
-28 -55 0
-31 -97 0
-31 -106 0
-34 -13 0
-34 -58 0
-37 -58 0
-37 -61 0
-40 -49 0
-40 -52 0
-43 -1 0
-43 -67 0
-46 -13 0
-46 -25 0
-49 -40 0
-49 -52 0
-52 -40 0
-52 -49 0
-55 -28 0
-55 -73 0
-58 -4 0
-58 -34 0
-61 -37 0
-61 -70 0
-64 -10 0
-64 -106 0
-67 -13 0
-67 -22 0
-70 -61 0
-70 -106 0
-73 -10 0
-73 -34 0
-76 -94 0
-76 -100 0
-79 -4 0
-79 -49 0
-82 -85 0
-85 -82 0
-88 -61 0
-88 -103 0
-91 -1 0
-91 -16 0
-94 -76 0
-94 -79 0
-97 -16 0
-97 -28 0
-100 -43 0
-100 -76 0
-103 -4 0
-103 -76 0
-106 -31 0
-106 -64 0
-109 -22 0
-109 -31 0
-112 -19 0
-112 -70 0
-115 -7 0
-115 -22 0
-118 -40 0
-118 -55 0
-2 -8 0
-2 -44 0
-5 -59 0
-5 -80 0
-8 -2 0
-8 -20 0
-11 -26 0
-11 -65 0
-14 -35 0
-14 -47 0
-17 -26 0
-17 -92 0
-20 -8 0
-20 -92 0
-23 -68 0
-23 -110 0
-26 -11 0
-26 -17 0
-29 -47 0
-29 -56 0
-32 -98 0
-32 -107 0
-35 -14 0
-35 -59 0
-38 -59 0
-38 -62 0
-41 -50 0
-41 -53 0
-44 -2 0
-44 -68 0
-47 -14 0
-47 -26 0
-50 -41 0
-50 -53 0
-53 -41 0
-53 -50 0
-56 -29 0
-56 -74 0
-59 -5 0
-59 -35 0
-62 -38 0
-62 -71 0
-65 -11 0
-65 -107 0
-68 -14 0
-68 -23 0
-71 -62 0
-71 -107 0
-74 -11 0
-74 -35 0
-77 -95 0
-77 -101 0
-80 -5 0
-80 -50 0
-83 -86 0
-86 -83 0
-89 -62 0
-89 -104 0
-92 -2 0
-92 -17 0
-95 -77 0
-95 -80 0
-98 -17 0
-98 -29 0
-101 -44 0
-101 -77 0
-104 -5 0
-104 -77 0
-107 -32 0
-107 -65 0
-110 -23 0
-110 -32 0
-113 -20 0
-113 -71 0
-116 -8 0
-116 -23 0
-119 -41 0
-119 -56 0
-3 -9 0
-3 -45 0
-6 -60 0
-6 -81 0
-9 -3 0
-9 -21 0
-12 -27 0
-12 -66 0
-15 -36 0
-15 -48 0
-18 -27 0
-18 -93 0
-21 -9 0
-21 -93 0
-24 -69 0
-24 -111 0
-27 -12 0
-27 -18 0
-30 -48 0
-30 -57 0
-33 -99 0
-33 -108 0
-36 -15 0
-36 -60 0
-39 -60 0
-39 -63 0
-42 -51 0
-42 -54 0
-45 -3 0
-45 -69 0
-48 -15 0
-48 -27 0
-51 -42 0
-51 -54 0
-54 -42 0
-54 -51 0
-57 -30 0
-57 -75 0
-60 -6 0
-60 -36 0
-63 -39 0
-63 -72 0
-66 -12 0
-66 -108 0
-69 -15 0
-69 -24 0
-72 -63 0
-72 -108 0
-75 -12 0
-75 -36 0
-78 -96 0
-78 -102 0
-81 -6 0
-81 -51 0
-84 -87 0
-87 -84 0
-90 -63 0
-90 -105 0
-93 -3 0
-93 -18 0
-96 -78 0
-96 -81 0
-99 -18 0
-99 -30 0
-102 -45 0
-102 -78 0
-105 -6 0
-105 -78 0
-108 -33 0
-108 -66 0
-111 -24 0
-111 -33 0
-114 -21 0
-114 -72 0
-117 -9 0
-117 -24 0
-120 -42 0
-120 -57 0
